StringID Type x y demand ReadyTime DueDate ServiceTime
D0 d 40 50 0 0 3390 0
Dt d 40 50 0 0 3390 0
S0 f 40 50 0 0 3390 0
S1 f 73 52 0 0 3390 0
S2 f 90 55 0 0 3390 0
S3 f 55 79 0 0 3390 0
S4 f 69 89 0 0 3390 0
S5 f 32 80 0 0 3390 0
S6 f 39 96 0 0 3390 0
S7 f 23 80 0 0 3390 0
S8 f 4 83 0 0 3390 0
S9 f 18 58 0 0 3390 0
S10 f 1 56 0 0 3390 0
S11 f 13 31 0 0 3390 0
S12 f -5 38 0 0 3390 0
S13 f 26 37 0 0 3390 0
S14 f 28 13 0 0 3390 0
S15 f 39 31 0 0 3390 0
S16 f 48 11 0 0 3390 0
S17 f 59 17 0 0 3390 0
S18 f 73 23 0 0 3390 0
S19 f 74 32 0 0 3390 0
S20 f 90 44 0 0 3390 0
C1 c3 52 75 10 906 1226 90
C2 c2 45 70 30 1004 1324 90
C3 c3 62 69 10 50 370 90
C4 c1 60 66 10 26 346 90
C5 c2 42 65 10 1192 1512 90
C6 c3 16 42 20 2464 2784 90
C7 c1 58 70 20 144 464 90
C8 c3 34 60 20 12 332 90
C9 c1 28 70 10 138 458 90
C10 c1 35 66 10 17 337 90
C11 c3 35 69 10 41 361 90
C12 c2 25 85 20 428 748 90
C13 c3 22 75 30 236 556 90
C14 c2 22 85 10 521 841 90
C15 c2 20 80 40 331 651 90
C16 c2 20 85 40 613 933 90
C17 c2 18 75 20 898 1218 90
C18 c3 15 75 20 805 1125 90
C19 c3 15 80 10 710 1030 90
C20 c2 30 50 10 2940 3260 90
C21 c2 30 56 20 2968 3288 90
C22 c3 28 52 20 2967 3287 90
C23 c2 14 66 10 1096 1416 90
C24 c3 25 50 10 2845 3165 90
C25 c2 22 66 40 998 1318 90
C26 c2 8 62 10 1194 1514 90
C27 c2 23 52 10 2752 3072 90
C28 c3 4 55 20 1513 1833 90
C29 c2 20 50 10 2562 2882 90
C30 c3 20 55 10 2657 2977 90
C31 c1 10 35 20 2180 2500 90
C32 c3 10 40 30 2367 2687 90
C33 c1 8 40 40 2275 2595 90
C34 c3 8 45 20 1614 1934 90
C35 c3 5 35 10 2085 2405 90
C36 c3 5 45 10 1707 2027 90
C37 c3 2 40 20 1989 2309 90
C38 c2 0 40 30 1897 2217 90
C39 c3 0 45 20 1802 2122 90
C40 c1 36 18 10 888 1208 90
C41 c1 35 32 10 40 360 90
C42 c1 33 32 20 132 452 90
C43 c2 33 35 10 17 337 90
C44 c3 32 20 10 794 1114 90
C45 c2 30 30 10 602 922 90
C46 c3 34 25 30 698 1018 90
C47 c2 30 35 10 227 547 90
C48 c3 36 40 10 11 331 90
C49 c2 48 20 10 1879 2199 90
C50 c1 26 32 10 415 735 90
C51 c3 25 30 10 507 827 90
C52 c1 25 35 10 322 642 90
C53 c2 44 5 20 1591 1911 90
C54 c1 42 10 40 1686 2006 90
C55 c2 42 15 10 1781 2101 90
C56 c3 40 5 30 1497 1817 90
C57 c2 38 15 40 1121 1441 90
C58 c3 38 5 30 1405 1725 90
C59 c1 38 10 10 1216 1536 90
C60 c3 35 5 20 1312 1632 90
C61 c3 50 30 10 2259 2579 90
C62 c1 50 35 20 2540 2860 90
C63 c3 50 40 50 1830 2150 90
C64 c2 48 30 10 2167 2487 90
C65 c3 44 25 10 1976 2296 90
C66 c3 47 35 10 2633 2953 90
C67 c1 47 40 10 1923 2243 90
C68 c1 42 30 10 2071 2391 90
C69 c3 45 35 10 2725 3045 90
C70 c3 95 30 30 955 1275 90
C71 c1 95 35 20 860 1180 90
C72 c3 53 30 10 2352 2672 90
C73 c3 92 30 10 1048 1368 90
C74 c3 53 35 50 2447 2767 90
C75 c2 45 65 20 1099 1419 90
C76 c2 90 35 10 765 1085 90
C77 c2 72 45 10 1534 1854 90
C78 c2 78 40 20 1436 1756 90
C79 c1 87 30 10 1242 1562 90
C80 c3 85 25 10 1147 1467 90
C81 c2 85 35 30 1337 1657 90
C82 c1 75 55 20 428 748 90
C83 c1 72 55 10 335 655 90
C84 c1 70 58 20 241 561 90
C85 c2 86 46 30 663 983 90
C86 c1 66 55 10 146 466 90
C87 c2 64 46 20 1632 1952 90
C88 c2 65 60 30 51 371 90
C89 c2 56 64 10 22 342 90
C90 c3 60 55 10 21 341 90
C91 c2 60 60 10 23 343 90
C92 c1 67 85 20 523 843 90
C93 c2 42 58 40 1289 1609 90
C94 c3 65 82 10 429 749 90
C95 c1 62 80 30 336 656 90
C96 c3 62 40 10 1728 2048 90
C97 c2 60 85 30 620 940 90
C98 c2 58 75 20 239 559 90
C99 c3 55 80 10 810 1130 90
C100 c3 55 85 20 715 1035 90
P0 p 62 45 0 0 3390 45
P1 p 16 21 0 0 3390 45
P2 p 35 24 0 0 3390 45
P3 p 61 38 0 0 3390 45
P4 p 14 75 0 0 3390 45
1 0 0 0 0
1 0 0 0 0
1 0 0 0 0
0 0 0 0 0
1 0 0 0 0
0 1 0 0 0
0 0 0 0 0
0 0 0 0 1
0 0 0 0 0
0 0 0 0 0
0 0 0 0 1
0 0 0 0 1
0 0 0 0 1
0 0 0 0 1
0 0 0 0 1
0 0 0 0 1
0 0 0 0 1
0 0 0 0 1
0 0 0 0 1
0 0 1 0 0
0 0 0 0 1
0 0 0 0 1
0 0 0 0 1
0 0 0 0 1
0 0 0 0 1
0 0 0 0 1
0 0 0 0 1
0 0 0 0 1
0 0 0 0 1
0 0 0 0 1
0 0 0 0 0
0 1 0 0 0
0 0 0 0 0
0 1 0 0 0
0 1 0 0 0
0 1 0 0 0
0 1 0 0 0
0 1 0 0 0
0 1 0 0 0
0 0 0 0 0
0 0 0 0 0
0 0 0 0 0
0 0 1 0 0
0 0 1 0 0
0 0 1 0 0
0 0 1 0 0
0 0 1 0 0
0 0 1 0 0
0 0 1 0 0
0 0 0 0 0
0 0 1 0 0
0 0 0 0 0
0 0 1 0 0
0 0 0 0 0
0 0 1 0 0
0 0 1 0 0
0 0 1 0 0
0 0 1 0 0
0 0 0 0 0
0 0 1 0 0
0 0 0 1 0
0 0 0 0 0
0 0 0 1 0
0 0 1 0 0
0 0 1 0 0
0 0 0 1 0
0 0 0 0 0
0 0 0 0 0
0 0 1 0 0
0 0 0 1 0
0 0 0 0 0
0 0 0 1 0
0 0 0 1 0
0 0 0 1 0
1 0 0 0 0
0 0 0 1 0
1 0 0 0 0
1 0 0 0 0
0 0 0 0 0
0 0 0 1 0
0 0 0 1 0
0 0 0 0 0
0 0 0 0 0
0 0 0 0 0
1 0 0 0 0
0 0 0 0 0
1 0 0 0 0
1 0 0 0 0
1 0 0 0 0
1 0 0 0 0
1 0 0 0 0
0 0 0 0 0
1 0 0 0 0
1 0 0 0 0
0 0 0 0 0
0 0 0 1 0
1 0 0 0 0
1 0 0 0 0
1 0 0 0 0
1 0 0 0 0
param Q := 117.78
param CV := 700
param r := 1
param g := 2.29
param V := 1
